p cnf 7230 17
-6781 -6823 -6857 0
-4244 -6819 -6855 0
-4242 -6821 -6853 0
6781 -6858 0
4244 -6856 0
4242 -6854 0
6857 6858 0
6855 6856 0
6853 6854 0
6823 -6858 0
6819 -6856 0
6821 -6854 0
-6783 -6825 6860 0
6851 6852 0
-6851 -6852 0
6825 -6860 0
6783 -6860 0
